nServices=10;
nDrivers=10;
nBuses=10;
startingTime=[38 19 198 143 119 47 83 21 69 141];
durationTime=[28 28 28 22 19 30 27 22 22 17];
durationDist=[52 29 42 57 59 45 44 36 29 42];
passangers=[5 16 20 9 9 15 24 9 6 23];
capacity=[28 17 22 13 19 11 27 25 27 13];
costTime=[8 10 7 8 10 7 8 6 9 10];
costDist=[2 3 3 4 3 3 6 2 2 5];
maxTime=[51 58 37 21 55 33 33 41 45 57];
costBM=[6 8 5 8 8 8 5 8 8 6];
costEM=[8 10 10 9 12 10 10 10 12 10];
BM=[17 16 11 12 12 11 12 11 12 18];
